26 39
0 19
14 27
24 32
34 22
11 9
38 38
15 32
9 10
16 29
48 14
3 39
25 5
38 44
2 32
12 40
30 37
7 38
40 43
25 19
48 12
22 39
8 34
3 10
7 4
33 40
27 34
32 12
12 16
22 27
29 42
45 22
32 14
42 6
24 34
36 42
30 30
10 36
2 47
26 33
29 1
16 23
6 20
46 3
32 37
3 1
36 0
46 29
47 32
26 20
